
Gurobi 9.0.1 (linux64) logging started Thu Apr 30 18:54:41 2020

Gurobi Optimizer version 9.0.1 build v9.0.1rc0 (linux64)
Optimize a model with 11327 rows, 12060 columns and 198990 nonzeros
Model fingerprint: 0x951331cf
Variable types: 0 continuous, 12060 integer (12032 binary)
Coefficient statistics:
  Matrix range     [1e+00, 1e+01]
  Objective range  [3e+00, 1e+02]
  Bounds range     [1e+00, 1e+00]
  RHS range        [1e+00, 1e+00]

User MIP start produced solution with objective 909 (0.31s)
Loaded user MIP start with objective 909

Presolve removed 928 rows and 1887 columns
Presolve time: 3.11s
Presolved: 10399 rows, 10173 columns, 162246 nonzeros
Variable types: 0 continuous, 10173 integer (10147 binary)

Root simplex log...

Iteration    Objective       Primal Inf.    Dual Inf.      Time
    2633    5.4009106e+02   2.270889e+03   0.000000e+00      5s
    5410    5.5024856e+02   1.790287e+03   0.000000e+00     10s
    7100    5.5398210e+02   8.526799e+02   0.000000e+00     15s
    8465    5.5450884e+02   2.213414e+03   0.000000e+00     20s
    9830    5.5546947e+02   3.324222e+02   0.000000e+00     25s
   11079    5.5645957e+02   5.600501e+02   0.000000e+00     30s
   12507    5.5718106e+02   1.717693e+03   0.000000e+00     35s
   13789    5.5745831e+02   1.829390e+03   0.000000e+00     40s
   14919    5.5776583e+02   4.218942e+02   0.000000e+00     46s
   15982    5.5801021e+02   1.249300e+02   0.000000e+00     50s
   17166    5.5825974e+02   2.776666e+01   0.000000e+00     55s
   18194    5.5836076e+02   0.000000e+00   0.000000e+00     60s

Root relaxation: objective 5.583608e+02, 18194 iterations, 55.76 seconds
Total elapsed time = 60.50s

    Nodes    |    Current Node    |     Objective Bounds      |     Work
 Expl Unexpl |  Obj  Depth IntInf | Incumbent    BestBd   Gap | It/Node Time

     0     0  558.36076    0 3683  909.00000  558.36076  38.6%     -   62s
     0     0  581.33877    0 3667  909.00000  581.33877  36.0%     -  160s
     0     0  582.86254    0 3624  909.00000  582.86254  35.9%     -  190s
     0     0  582.89097    0 3609  909.00000  582.89097  35.9%     -  193s
     0     0  582.89108    0 3614  909.00000  582.89108  35.9%     -  194s
     0     0  591.63978    0 3694  909.00000  591.63978  34.9%     -  287s
     0     0  592.03209    0 3727  909.00000  592.03209  34.9%     -  308s
     0     0  592.06724    0 3723  909.00000  592.06724  34.9%     -  312s
     0     0  592.06874    0 3719  909.00000  592.06874  34.9%     -  313s
     0     0  598.99278    0 3721  909.00000  598.99278  34.1%     -  470s
     0     0  599.52567    0 3745  909.00000  599.52567  34.0%     -  502s
     0     0  599.73759    0 3744  909.00000  599.73759  34.0%     -  516s
     0     0  599.78115    0 3735  909.00000  599.78115  34.0%     -  523s
     0     0  599.78695    0 3748  909.00000  599.78695  34.0%     -  525s
     0     0  604.12895    0 3790  909.00000  604.12895  33.5%     -  694s
     0     0  604.44225    0 3761  909.00000  604.44225  33.5%     -  724s
     0     0  604.62151    0 3774  909.00000  604.62151  33.5%     -  744s
     0     0  604.74289    0 3781  909.00000  604.74289  33.5%     -  759s
     0     0  604.99598    0 3780  909.00000  604.99598  33.4%     -  776s
     0     0  605.02912    0 3801  909.00000  605.02912  33.4%     -  783s
     0     0  605.03770    0 3800  909.00000  605.03770  33.4%     -  788s
     0     0  607.00935    0 3812  909.00000  607.00935  33.2%     -  879s
     0     0  607.17815    0 3828  909.00000  607.17815  33.2%     -  903s
     0     0  607.24257    0 3818  909.00000  607.24257  33.2%     -  915s
     0     0  607.25328    0 3812  909.00000  607.25328  33.2%     -  921s
     0     0  609.70856    0 3826  909.00000  609.70856  32.9%     - 1012s
     0     0  609.95080    0 3850  909.00000  609.95080  32.9%     - 1044s
     0     0  609.99596    0 3848  909.00000  609.99596  32.9%     - 1054s
     0     0  610.00779    0 3853  909.00000  610.00779  32.9%     - 1059s
     0     0  611.68036    0 3817  909.00000  611.68036  32.7%     - 1145s
     0     0  611.88262    0 3825  909.00000  611.88262  32.7%     - 1174s
     0     0  611.94156    0 3828  909.00000  611.94156  32.7%     - 1187s
     0     0  611.95743    0 3839  909.00000  611.95743  32.7%     - 1193s
     0     0  612.59521    0 3829  909.00000  612.59521  32.6%     - 1252s
     0     0  612.69541    0 3837  909.00000  612.69541  32.6%     - 1274s
     0     0  612.72169    0 3847  909.00000  612.72169  32.6%     - 1282s
     0     0  613.75274    0 3844  909.00000  613.75274  32.5%     - 1345s
     0     0  613.85554    0 3842  909.00000  613.85554  32.5%     - 1367s
     0     0  613.87671    0 3856  909.00000  613.87671  32.5%     - 1374s
     0     0  614.18530    0 3855  909.00000  614.18530  32.4%     - 1407s
     0     0  614.27746    0 3857  909.00000  614.27746  32.4%     - 1428s
     0     0  614.29345    0 3856  909.00000  614.29345  32.4%     - 1435s
     0     0  614.54248    0 3858  909.00000  614.54248  32.4%     - 1468s
     0     0  614.62206    0 3848  909.00000  614.62206  32.4%     - 1489s
     0     0  614.65667    0 3844  909.00000  614.65667  32.4%     - 1499s
     0     0  614.68132    0 3863  909.00000  614.68132  32.4%     - 1508s
     0     0  615.36367    0 3821  909.00000  615.36367  32.3%     - 1571s
     0     0  615.52519    0 3838  909.00000  615.52519  32.3%     - 1602s
     0     0  615.56835    0 3848  909.00000  615.56835  32.3%     - 1616s
     0     0  615.57885    0 3856  909.00000  615.57885  32.3%     - 1622s
     0     0  616.87789    0 3836  909.00000  616.87789  32.1%     - 1699s
     0     0  617.01943    0 3853  909.00000  617.01943  32.1%     - 1730s
     0     0  617.06233    0 3864  909.00000  617.06233  32.1%     - 1742s
     0     0  617.07834    0 3865  909.00000  617.07834  32.1%     - 1750s
     0     0  617.76464    0 3843  909.00000  617.76464  32.0%     - 1807s
     0     0  617.89167    0 3843  909.00000  617.89167  32.0%     - 1835s
     0     0  617.97231    0 3861  909.00000  617.97231  32.0%     - 1850s
     0     0  617.99638    0 3852  909.00000  617.99638  32.0%     - 1858s
     0     0  618.69759    0 3869  909.00000  618.69759  31.9%     - 1913s
     0     0  618.86014    0 3865  909.00000  618.86014  31.9%     - 1940s
     0     0  618.91765    0 3858  909.00000  618.91765  31.9%     - 1956s
     0     0  618.93702    0 3870  909.00000  618.93702  31.9%     - 1963s
     0     0  619.60531    0 3834  909.00000  619.60531  31.8%     - 2024s
     0     0  619.79450    0 3867  909.00000  619.79450  31.8%     - 2060s
     0     0  619.84993    0 3873  909.00000  619.84993  31.8%     - 2074s
     0     0  619.86634    0 3858  909.00000  619.86634  31.8%     - 2080s
     0     0  620.33832    0 3837  909.00000  620.33832  31.8%     - 2129s
     0     0  620.44635    0 3866  909.00000  620.44635  31.7%     - 2157s
     0     0  620.51087    0 3847  909.00000  620.51087  31.7%     - 2171s
     0     0  620.52576    0 3852  909.00000  620.52576  31.7%     - 2177s
     0     0  620.78883    0 3872  909.00000  620.78883  31.7%     - 2211s
     0     0  620.85037    0 3882  909.00000  620.85037  31.7%     - 2234s
     0     0  620.86547    0 3884  909.00000  620.86547  31.7%     - 2241s
     0     0  621.09090    0 3887  909.00000  621.09090  31.7%     - 2276s
     0     0  621.09090    0 3887  909.00000  621.09090  31.7%     - 2292s
     0     2  621.09219    0 3887  909.00000  621.09219  31.7%     - 2607s
     1     3  621.64166    1 3881  909.00000  621.09219  31.7%  5936 2659s
     2     4  626.04918    1 3617  909.00000  621.64190  31.6% 18134 2910s
     3     5  622.23663    2 3857  909.00000  621.64239  31.6% 15446 2989s
     4     6  628.77718    2 3639  909.00000  622.23663  31.5% 24602 3398s
     5     7  622.69179    3 3866  909.00000  622.23663  31.5% 20620 3433s

Cutting planes:
  MIR: 131
  StrongCG: 6
  Zero half: 62
  Mod-K: 2
  RLT: 2196

Explored 6 nodes (396510 simplex iterations) in 3600.01 seconds
Thread count was 1 (of 40 available processors)

Solution count 1: 909 

Time limit reached
Best objective 9.090000000000e+02, best bound 6.230000000000e+02, gap 31.4631%

User-callback calls 9161, time in user-callback 0.02 sec
